5 5
0 16 3 12 2 76 4 62 1 34
2 38 1 84 4 47 3 79 0 22
1 80 4 88 0 3 3 1 2 53
0 64 4 44 3 47 2 38 1 63
4 81 2 41 3 21 1 45 0 13
-1
0 2 5
0 1 3 5
0 2 4 5
0 2 5
0 1 4 5
-2
44 237
42 169 317
264 210 251
116 332
125 292 293

361 6
0 15 12 24 9
10 6 23 19 4
5 2 21 18 14
1 17 22 13 8
20 16 11 7 3
